DIMENSION :18
NODE_COORD_SECTION
1 96.59107823422909 -21.288048012692514
2 -33.944440666484724 27.534436041941262
3 -25.908930671395865 72.13732417044596
4 78.60149741059263 28.195810402521516
5 64.60983538011291 13.071375287739698
6 -77.81730671406268 89.21323652036065
7 -54.67515988689191 86.5552790174884
8 -2.4825095234356525 -75.9241424287982
9 -9.982895214650654 31.99654033004171
10 6.8406227152486565 -12.944310774565622
11 17.76429109813948 97.69210923098319
12 -54.49172192409675 88.22771829636028
13 -90.95501413092069 46.28477736259043
14 30.756233838765752 21.377007511886333
15 -34.29921965703187 -58.83619915237064
16 46.8895976885226 -17.832906183700587
17 -82.82081028364419 71.35982979154173
18 -22.215697717586735 72.10797020436496
EOF
